clingo version 5.4.0
Reading from tempSRTISolver.lp ...
Solving...
Answer: 1
matched(33,2) matched(1,3) matched(10,4) matched(40,5) matched(35,6) matched(25,7) matched(23,8) matched(14,9) matched(4,10) matched(28,11) matched(29,12) matched(18,13) matched(9,14) matched(34,15) matched(22,16) matched(30,17) matched(13,18) matched(39,19) matched(26,20) matched(37,21) matched(16,22) matched(8,23) matched(32,24) matched(7,25) matched(20,26) matched(38,27) matched(11,28) matched(12,29) matched(17,30) matched(36,31) matched(24,32) matched(2,33) matched(15,34) matched(6,35) matched(31,36) matched(21,37) matched(27,38) matched(19,39) matched(5,40) matched(3,1)
Optimization: 252
OPTIMUM FOUND

Models       : 1
  Optimum    : yes
Optimization : 252
Calls        : 1
Time         : 1.265s (Solving: 0.08s 1st Model: 0.01s Unsat: 0.07s)
CPU Time     : 1.262s
